\ENCODING=ISO-8859-1
\Problem name: 

Maximize
 obj: - a0 + a1 + a2 + a3 + 0.5 a4 + a5 + a6 + 0.5 a9 + 0.5 a10 + a11 + a13
      + 0.5 a15 + 0.5 a16 + a17 + a18 + a19 + a20 + 0.5 a21 + 0.5 a22 + 0.5 a27
      + a28 + a29 + a30 + a31 + a32 + a33 + 0.25 a36 + 0.25 a37 + a39 + a40
      + 0.75 a41 + 0.5 a42 + 0.75 a43 + a44 + 0.125 a46 + 0.25 a47 + 0.5 a48
      + a50 + 0.875 a51 + 0.875 a52 + 0.75 a53 + 0.75 a54 + a55 + a56
      + 0.125 a57 + a58 + 0.25 a59 + a60 + 0.5 a68 + 0.875 a73 + 0.125 a74
      + 0.875 a75 + 0.125 a76 + 0.5 a77 + 0.125 a81 + 0.875 a82 + 0.375 a85
      + 0.625 a86 + 0.5 a96 + 0.125 a97 + 0.875 a98 + a99 + 0.375 a101
      + 0.625 a102 + a104 + 0.5 a106 + 0.125 a119 + 0.875 a120 + a121
      + 0.375 a123 + 0.375 a124 + 0.75 a126 + 0.5 a127 + 0.5 a128 + 0.25 a133
      + 0.5 a135 + 0.25 a138 + 0.125 a141 + 0.875 a142 + 0.75 a143 + 0.125 a144
      + 0.125 a145 + 0.625 a146 + 0.25 a147 + 0.25 a148 + 0.25 a149 + 0.75 a150
      + 0.125 a153 + 0.125 a156 + 0.25 a157 + 0.25 a160 + 0.875 a165
      + 0.75 a169 - 0.0001 u1 - 0.0001 u2 - 0.0001 u3 - 0.0001 u4 - 0.0001 u5
      - 0.0001 u6 - 0.0001 u7 - 0.0001 u8 - 0.0001 u9 - 0.0001 u10 - 0.0001 u11
      - 0.0001 u12 - 0.0001 u13 - 0.0001 u14 - 0.0001 u15 - 0.0001 u16
      - 0.0001 u17 - 0.0001 u18 - 0.0001 u19 - 0.0001 u20 - 0.0001 u21
      - 0.0001 u22 - 0.0001 u23 - 0.0001 u24 - 0.0001 u25 - 0.0001 u26
      - 0.0001 u27 - 0.0001 u28 - 0.0001 u29 - 0.0001 u30 - 0.0001 u31
      - 0.0001 u32 - 0.0001 u33 - 0.0001 u34 - 0.0001 u35 - 0.0001 u36
      - 0.0001 u37 - 0.0001 u38 - 0.0001 u39 - 0.0001 u40 - 0.0001 u41
      - 0.0001 u42 - 0.0001 u43 - 0.0001 u44 - 0.0001 u45 - 0.0001 u46
      - 0.0001 u47 - 0.0001 u48 - 0.0001 u49 - 0.0001 u50 - 0.0001 u51
      - 0.0001 u52 - 0.0001 u53 - 0.0001 u54 - 0.0001 u55 - 0.0001 u56
      - 0.0001 u57 - 0.0001 u58 - 0.0001 u59 - 0.0001 u60 - 0.0001 u61
      - 0.0001 u62 - 0.0001 u63 - 0.0001 u64 - 0.0001 u65 - 0.0001 u66
      - 0.0001 u67 - 0.0001 u68 - 0.0001 u69 - 0.0001 u70 - 0.0001 u71
      - 0.0001 u72 - 0.0001 u73 - 0.0001 u74 - 0.0001 u75 - 0.0001 u76
      - 0.0001 u77 - 0.0001 u78 - 0.0001 u79 - 0.0001 u80 - 0.0001 u81
      - 0.0001 u82 - 0.0001 u83 - 0.0001 u84 - 0.0001 u85 - 0.0001 u86
      - 0.0001 u87 - 0.0001 u88 - 0.0001 u89 - 0.0001 u90 - 0.0001 u91
      - 0.0001 u92 - 0.0001 u93 - 0.0001 u94 - 0.0001 u95 - 0.0001 u96
      - 0.0001 u97 - 0.0001 u98 - 0.0001 u99 - 0.0001 u100 - 0.0001 u101
      - 0.0001 u102 - 0.0001 u103 - 0.0001 u104 - 0.0001 u105 - 0.0001 u106
      - 0.0001 u107 - 0.0001 u108 - 0.0001 u109 - 0.0001 u110 - 0.0001 u111
      - 0.0001 u112 - 0.0001 u113 - 0.0001 u114 - 0.0001 u115 - 0.0001 u116
      - 0.0001 u117 - 0.0001 u118 - 0.0001 u119 - 0.0001 u120 - 0.0001 u121
      - 0.0001 u122 - 0.0001 u123 - 0.0001 u124 - 0.0001 u125 - 0.0001 u126
      - 0.0001 u127 - 0.0001 u128 - 0.0001 u129 - 0.0001 u130 - 0.0001 u131
      - 0.0001 u132 - 0.0001 u133 - 0.0001 u134 - 0.0001 u135 - 0.0001 u136
      - 0.0001 u137 - 0.0001 u138 - 0.0001 u139 - 0.0001 u140 - 0.0001 u141
      - 0.0001 u142 - 0.0001 u143 - 0.0001 u144 - 0.0001 u145 - 0.0001 u146
      - 0.0001 u147 - 0.0001 u148 - 0.0001 u149 - 0.0001 u150 - 0.0001 u151
      - 0.0001 u152 - 0.0001 u153 - 0.0001 u154 - 0.0001 u155 - 0.0001 u156
      - 0.0001 u157 - 0.0001 u158 - 0.0001 u159 - 0.0001 u160 - 0.0001 u161
      - 0.0001 u162 - 0.0001 u163 - 0.0001 u164 - 0.0001 u165 - 0.0001 u166
      - 0.0001 u167 - 0.0001 u168 - 0.0001 u169 - 0.0001 u170 - 0.0001 u171
      - 0.0001 u172 - 0.0001 u173 - 0.0001 u174 - 0.0001 u175 - 0.0001 u176
      - 0.0001 u177 - 0.0001 u178 - 0.0001 u179 - 0.0001 u180 - 0.0001 u181
      - 0.0001 u182 - 0.0001 u183 - 0.0001 u184 - 0.0001 u185 - 0.0001 u186
      - 0.0001 u187 - 0.0001 u188 - 0.0001 u189 - 0.0001 u190 - 0.0001 u191
      - 0.0001 u192 - 0.0001 u193 - 0.0001 u194 - 0.0001 u195 - 0.0001 u196
      - 0.0001 u197 - 0.0001 u198 - 0.0001 u199 - 0.0001 u200 - 0.0001 u201
      - 0.0001 u202 - 0.0001 u203 - 0.0001 u204 - 0.0001 u205 - 0.0001 u206
      - 0.0001 u207 - 0.0001 u208 - 0.0001 u209 - 0.0001 u210 - 0.0001 u211
      - 0.0001 u212 - 0.0001 u213 - 0.0001 u214 - 0.0001 u215 - 0.0001 u216
      - 0.0001 u217 - 0.0001 u218 - 0.0001 u219 - 0.0001 u220 - 0.0001 u221
      - 0.0001 u222 - 0.0001 u223 - 0.0001 u224 - 0.0001 u225 - 0.0001 u226
      - 0.0001 u227 - 0.0001 u228 - 0.0001 u229 - 0.0001 u230
Subject To
 c1:  - a0 - f0 + u1 - u2 + u3 - u4 + u5 - u6 + u7 - u8 + u9 - u10 + u11 - u12
      + u13 - u14 + u15 - u16 + u17 - u18 + u19 - u20 + u21 - u22 + u23 - u24
      + u25 - u26 + u27 - u28 + u29 - u30 + u31 - u32 + u33 - u34 + u35 - u36
      + u37 - u38 + u39 - u40 + u41 - u42 + u43 - u44 + u45 - u46 + u47 - u48
      + u49 - u50 + u51 - u52 + u53 - u54 + u55 - u56 + u57 - u58 + u59 - u60
      + u61 - u62 + u63 - u64 + u65 - u66 + u67 - u68 + u69 - u70 + u71 - u72
      + u73 - u74 + u75 - u76 + u77 - u78 + u79 - u80 + u81 - u82 + u83 - u84
      + u85 - u86 + u87 - u88 + u89 - u90 + u91 - u92 + u93 - u94 + u95 - u96
      + u97 - u98 + u99 - u100 + u101 - u102 + u103 - u104 + u105 - u106 + u107
      - u108 + u109 - u110 + u111 - u112 + u113 - u114 + u115 - u116 + u117
      - u118 + u119 - u120 + u121 - u122 + u123 - u124 + u125 - u126 + u127
      - u128 + u129 - u130 + u131 - u132 + u133 - u134 + u135 - u136 + u137
      - u138 + u139 - u140 + u141 - u142 + u143 - u144 + u145 - u146 + u147
      - u148 + u149 - u150 + u151 - u152 + u153 - u154 + u155 - u156 + 2 u157
      - 2 u158 + 2 u159 - 2 u160 + 2 u161 - 2 u162 + 2 u163 - 2 u164 + 2 u165
      - 2 u166 + 2 u167 - 2 u168 + 2 u169 - 2 u170 + 2 u171 - 2 u172 + 2 u173
      - 2 u174 + 2 u175 - 2 u176 + 2 u177 - 2 u178 + 2 u179 - 2 u180 + 2 u181
      - 2 u182 + 2 u183 - 2 u184 + 2 u185 - 2 u186 + 2 u187 - 2 u188 + 2 u189
      - 2 u190 + 2 u191 - 2 u192 + 2 u193 - 2 u194 + 2 u195 - 2 u196 + 2 u197
      - 2 u198 + 2 u199 - 2 u200 + 2 u201 - 2 u202 + 2 u203 - 2 u204 + 2 u205
      - 2 u206 + 2 u207 - 2 u208 + 2 u209 - 2 u210 + 2 u211 - 2 u212 + 2 u213
      - 2 u214 + 2 u215 - 2 u216 + 2 u217 - 2 u218 + 2 u219 - 2 u220 + 2 u221
      - 2 u222 + 2 u223 - 2 u224 + 2 u225 - 2 u226 + 2 u227 - 2 u228 - u229
      - u230  = 0
 c2:  - a1 - f1 + u1 - u2 + u157 - u158 + u159 - u160  = 0
 c3:  - a2 - f2 + u3 - u4 + u159 - u160 + u161 - u162  = 0
 c4:  - a3 - f3 + u5 - u6 + u161 - u162 + u163 - u164  = 0
 c5:  - a4 - f4 + u7 - u8 + u163 - u164 + u165 - u166  = 0
 c6:  - a5 - f5 + u9 - u10 + u165 - u166 + u167 - u168  = 0
 c7:  - a6 - f6 + u11 - u12 + u157 - u158 + u169 - u170  = 0
 c8:  - a9 - f9 + u17 - u18 + u163 - u164 + u175 - u176  = 0
 c9:  - a10 - f10 + u165 - u166 + u177 - u178  = 0
 c10: - a11 - f11 + u19 - u20 + u167 - u168 + u179 - u180  = 0
 c11: - a13 - f13 + u23 - u24 + u171 - u172 + u173 - u174  = 0
 c12: - a15 - f15 + u175 - u176 + u177 - u178  = 0
 c13: - a16 - f16 + u177 - u178 + u179 - u180  = 0
 c14: - a17 - f17 + u27 - u28 + u169 - u170 + u181 - u182  = 0
 c15: - a18 - f18 + u29 - u30 + u171 - u172 + u183 - u184  = 0
 c16: - a19 - f19 + u31 - u32 + u173 - u174 + u185 - u186  = 0
 c17: - a20 - f20 + u33 - u34 + u175 - u176 + u187 - u188  = 0
 c18: - a21 - f21 + u177 - u178 + u189 - u190  = 0
 c19: - a22 - f22 + u35 - u36 + u179 - u180 + u191 - u192  = 0
 c20: - a27 - f27 + u45 - u46 + u189 - u190 + u191 - u192  = 0
 c21: - a28 - f28 + u47 - u48 + u181 - u182 + u193 - u194  = 0
 c22: - a29 - f29 + u49 - u50 + u183 - u184 + u195 - u196  = 0
 c23: - a30 - f30 + u51 - u52 + u185 - u186 + u197 - u198  = 0
 c24: - a31 - f31 + u53 - u54 + u187 - u188 + u199 - u200  = 0
 c25: - a32 - f32 + u55 - u56 + u189 - u190 + u201 - u202  = 0
 c26: - a33 - f33 + u57 - u58 + u191 - u192 + u203 - u204  = 0
 c27: - a36 - f36 + u63 - u64 + u197 - u198 + u199 - u200 - u229  = 0
 c28: - a37 - f37 + u65 - u66 + u199 - u200 + u201 - u202  = 0
 c29: - a39 - f39 + u69 - u70 + u193 - u194 + u205 - u206  = 0
 c30: - a40 - f40 + u71 - u72 + u195 - u196 + u207 - u208  = 0
 c31: - a41 - f41 + u73 - u74 + u197 - u198 + u209 - u210  = 0
 c32: - a42 - f42 + u75 - u76 + u199 - u200 + u211 - u212 - u229  = 0
 c33: - a43 - f43 + u77 - u78 + u201 - u202 + u213 - u214  = 0
 c34: - a44 - f44 + u79 - u80 + u203 - u204 + u215 - u216  = 0
 c35: - a46 - f46 + u83 - u84 + u207 - u208 + u209 - u210  = 0
 c36: - a47 - f47 + u85 - u86 + u209 - u210 + u211 - u212 - u229 - u230  = 0
 c37: - a48 - f48 + u87 - u88 + u211 - u212 + u213 - u214 - u230  = 0
 c38: - a50 - f50 + u91 - u92 + u205 - u206 + u217 - u218  = 0
 c39: - a51 - f51 + u93 - u94 + u207 - u208 + u219 - u220  = 0
 c40: - a52 - f52 + u95 - u96 + u209 - u210 + u221 - u222  = 0
 c41: - a53 - f53 + u97 - u98 + u211 - u212 + u223 - u224  = 0
 c42: - a54 - f54 + u99 - u100 + u213 - u214 + u225 - u226  = 0
 c43: - a55 - f55 + u101 - u102 + u215 - u216 + u227 - u228  = 0
 c44: - a56 - f56 + u103 - u104 + u217 - u218 + u219 - u220  = 0
 c45: - a57 - f57 + u105 - u106 + u219 - u220 + u221 - u222  = 0
 c46: - a58 - f58 + u107 - u108 + u221 - u222 + u223 - u224  = 0
 c47: - a59 - f59 + u109 - u110 + u223 - u224 + u225 - u226  = 0
 c48: - a60 - f60 + u111 - u112 + u225 - u226 + u227 - u228  = 0
 c49: - a68 - f68 + u7 - u8 + u155 - u156  = 0
 c50: - a73 - f73 + u13 - u14 + u113 - u114  = 0
 c51: - a74 - f74 + u13 - u14 + u115 - u116  = 0
 c52: - a75 - f75 + u15 - u16 + u115 - u116  = 0
 c53: - a76 - f76 + u15 - u16 + u117 - u118  = 0
 c54: - a77 - f77 + u17 - u18 + u117 - u118  = 0
 c55: - a81 - f81 + u21 - u22 + u113 - u114  = 0
 c56: - a82 - f82 + u21 - u22 + u119 - u120  = 0
 c57: - a85 - f85 + u25 - u26 + u117 - u118  = 0
 c58: - a86 - f86 + u25 - u26 + u123 - u124  = 0
 c59: - a96 - f96 + u35 - u36 + u155 - u156  = 0
 c60: - a97 - f97 + u37 - u38 + u119 - u120  = 0
 c61: - a98 - f98 + u37 - u38 + u125 - u126  = 0
 c62: - a99 - f99 + u39 - u40 + u121 - u122  = 0
 c63: - a101 - f101 + u41 - u42 + u123 - u124  = 0
 c64: - a102 - f102 + u41 - u42 + u129 - u130  = 0
 c65: - a104 - f104 + u43 - u44 + u131 - u132  = 0
 c66: - a106 - f106 + u45 - u46 + u133 - u134  = 0
 c67: - a119 - f119 + u59 - u60 + u125 - u126  = 0
 c68: - a120 - f120 + u59 - u60 + u135 - u136  = 0
 c69: - a121 - f121 + u61 - u62 + u127 - u128  = 0
 c70: - a123 - f123 + u63 - u64 + u129 - u130  = 0
 c71: - a124 - f124 + u63 - u64 + u139 - u140  = 0
 c72: - a126 - f126 + u65 - u66 + u141 - u142  = 0
 c73: - a127 - f127 + u67 - u68 + u133 - u134  = 0
 c74: - a128 - f128 + u67 - u68 + u143 - u144  = 0
 c75: - a133 - f133 + u73 - u74 + u137 - u138  = 0
 c76: - a135 - f135 + u75 - u76 + u139 - u140  = 0
 c77: - a138 - f138 + u77 - u78 + u143 - u144  = 0
 c78: - a141 - f141 + u81 - u82 + u135 - u136  = 0
 c79: - a142 - f142 + u81 - u82 + u145 - u146  = 0
 c80: - a143 - f143 + u83 - u84 + u137 - u138  = 0
 c81: - a144 - f144 + u83 - u84 + u147 - u148  = 0
 c82: - a145 - f145 + u85 - u86 + u139 - u140  = 0
 c83: - a146 - f146 + u85 - u86 + u149 - u150  = 0
 c84: - a147 - f147 + u87 - u88 + u141 - u142 - u230  = 0
 c85: - a148 - f148 + u87 - u88 + u151 - u152  = 0
 c86: - a149 - f149 + u89 - u90 + u143 - u144  = 0
 c87: - a150 - f150 + u89 - u90 + u153 - u154  = 0
 c88: - a153 - f153 + u93 - u94 + u145 - u146  = 0
 c89: - a156 - f156 + u95 - u96 + u149 - u150  = 0
 c90: - a157 - f157 + u97 - u98 + u149 - u150  = 0
 c91: - a160 - f160 + u99 - u100 + u153 - u154  = 0
 c92: - a165 - f165 + u105 - u106 + u147 - u148  = 0
 c93: - a169 - f169 + u109 - u110 + u151 - u152  = 0
 c94: u229 + u230  = 0
Bounds
      a0 Free
      a1 Free
      a2 Free
      a3 Free
      a4 Free
      a5 Free
      a6 Free
      a9 Free
      a10 Free
      a11 Free
      a13 Free
      a15 Free
      a16 Free
      a17 Free
      a18 Free
      a19 Free
      a20 Free
      a21 Free
      a22 Free
      a27 Free
      a28 Free
      a29 Free
      a30 Free
      a31 Free
      a32 Free
      a33 Free
      a36 Free
      a37 Free
      a39 Free
      a40 Free
      a41 Free
      a42 Free
      a43 Free
      a44 Free
      a46 Free
      a47 Free
      a48 Free
      a50 Free
      a51 Free
      a52 Free
      a53 Free
      a54 Free
      a55 Free
      a56 Free
      a57 Free
      a58 Free
      a59 Free
      a60 Free
      a68 Free
      a73 Free
      a74 Free
      a75 Free
      a76 Free
      a77 Free
      a81 Free
      a82 Free
      a85 Free
      a86 Free
      a96 Free
      a97 Free
      a98 Free
      a99 Free
      a101 Free
      a102 Free
      a104 Free
      a106 Free
      a119 Free
      a120 Free
      a121 Free
      a123 Free
      a124 Free
      a126 Free
      a127 Free
      a128 Free
      a133 Free
      a135 Free
      a138 Free
      a141 Free
      a142 Free
      a143 Free
      a144 Free
      a145 Free
      a146 Free
      a147 Free
      a148 Free
      a149 Free
      a150 Free
      a153 Free
      a156 Free
      a157 Free
      a160 Free
      a165 Free
      a169 Free
 0 <= f0 <= 0.99
 0 <= f1 <= 0.99
 0 <= f2 <= 0.99
 0 <= f3 <= 0.99
 0 <= f4 <= 0.99
 0 <= f5 <= 0.99
 0 <= f6 <= 0.99
 0 <= f9 <= 0.99
 0 <= f10 <= 0.99
 0 <= f11 <= 0.99
 0 <= f13 <= 0.99
 0 <= f15 <= 0.99
 0 <= f16 <= 0.99
 0 <= f17 <= 0.99
 0 <= f18 <= 0.99
 0 <= f19 <= 0.99
 0 <= f20 <= 0.99
 0 <= f21 <= 0.99
 0 <= f22 <= 0.99
 0 <= f27 <= 0.99
 0 <= f28 <= 0.99
 0 <= f29 <= 0.99
 0 <= f30 <= 0.99
 0 <= f31 <= 0.99
 0 <= f32 <= 0.99
 0 <= f33 <= 0.99
 0 <= f36 <= 0.99
 0 <= f37 <= 0.99
 0 <= f39 <= 0.99
 0 <= f40 <= 0.99
 0 <= f41 <= 0.99
 0 <= f42 <= 0.99
 0 <= f43 <= 0.99
 0 <= f44 <= 0.99
 0 <= f46 <= 0.99
 0 <= f47 <= 0.99
 0 <= f48 <= 0.99
 0 <= f50 <= 0.99
 0 <= f51 <= 0.99
 0 <= f52 <= 0.99
 0 <= f53 <= 0.99
 0 <= f54 <= 0.99
 0 <= f55 <= 0.99
 0 <= f56 <= 0.99
 0 <= f57 <= 0.99
 0 <= f58 <= 0.99
 0 <= f59 <= 0.99
 0 <= f60 <= 0.99
 0 <= f68 <= 0.99
 0 <= f73 <= 0.99
 0 <= f74 <= 0.99
 0 <= f75 <= 0.99
 0 <= f76 <= 0.99
 0 <= f77 <= 0.99
 0 <= f81 <= 0.99
 0 <= f82 <= 0.99
 0 <= f85 <= 0.99
 0 <= f86 <= 0.99
 0 <= f96 <= 0.99
 0 <= f97 <= 0.99
 0 <= f98 <= 0.99
 0 <= f99 <= 0.99
 0 <= f101 <= 0.99
 0 <= f102 <= 0.99
 0 <= f104 <= 0.99
 0 <= f106 <= 0.99
 0 <= f119 <= 0.99
 0 <= f120 <= 0.99
 0 <= f121 <= 0.99
 0 <= f123 <= 0.99
 0 <= f124 <= 0.99
 0 <= f126 <= 0.99
 0 <= f127 <= 0.99
 0 <= f128 <= 0.99
 0 <= f133 <= 0.99
 0 <= f135 <= 0.99
 0 <= f138 <= 0.99
 0 <= f141 <= 0.99
 0 <= f142 <= 0.99
 0 <= f143 <= 0.99
 0 <= f144 <= 0.99
 0 <= f145 <= 0.99
 0 <= f146 <= 0.99
 0 <= f147 <= 0.99
 0 <= f148 <= 0.99
 0 <= f149 <= 0.99
 0 <= f150 <= 0.99
 0 <= f153 <= 0.99
 0 <= f156 <= 0.99
 0 <= f157 <= 0.99
 0 <= f160 <= 0.99
 0 <= f165 <= 0.99
 0 <= f169 <= 0.99
Generals
 a0  a1  a2  a3  a4  a5  a6  a9  a10  a11  a13  a15  a16  a17  a18  a19  a20 
 a21  a22  a27  a28  a29  a30  a31  a32  a33  a36  a37  a39  a40  a41  a42 
 a43  a44  a46  a47  a48  a50  a51  a52  a53  a54  a55  a56  a57  a58  a59 
 a60  a68  a73  a74  a75  a76  a77  a81  a82  a85  a86  a96  a97  a98  a99 
 a101  a102  a104  a106  a119  a120  a121  a123  a124  a126  a127  a128  a133 
 a135  a138  a141  a142  a143  a144  a145  a146  a147  a148  a149  a150  a153 
 a156  a157  a160  a165  a169 
End
